NAME : portcgen-20-30
COMMENT : portcgen N=20, seed=30
TYPE : TSP
DIMENSION : 20
EDGE_WEIGHT_TYPE : EUC_2D
NODE_COORD_SECTION
1 266801 279342
2 -423097 -400352
3 102686 -360413
4 -66762 -495933
5 472006 406810
6 321734 -131678
7 -208855 154789
8 197012 35762
9 93780 -36893
10 -1142 -374072
11 -14661 107959
12 -261622 648956
13 -80780 -155416
14 219396 170013
15 -45289 -252385
16 -358430 242677
17 -109895 -107156
18 -21997 272070
19 -111111 -26477
20 194479 -288972
